NAME : random_10
COMMENT : 40 random nodes
TYPE : TSP
DIMENSION : 40
EDGE_WEIGHT_TYPE : EUC_2D
NODE_COORD_SECTION
1 832 446
2 104 537
3 401 970
4 387 70
5 551 846
6 161 82
7 856 982
8 8 17
9 200 442
10 322 494
11 444 425
12 577 431
13 555 626
14 806 193
15 836 319
16 111 795
17 770 740
18 97 785
19 619 514
20 554 388
21 598 941
22 477 775
23 158 444
24 728 879
25 240 726
26 423 508
27 428 27
28 174 228
29 669 340
30 368 482
31 334 340
32 896 309
33 774 34
34 616 501
35 647 256
36 905 72
37 7 887
38 277 882
39 853 620
40 503 863
EOF